InboundTrucks  = 8;
OutboundTrucks = 5;
InboundDoors   = 2;
OutboundDoors  = 1;
ReleaseTime    = [8,3,4,0,2,2,5,6];
UnloadTime     = [10,12,2,8,9,6,3,10];
LoadTime       = [8,5,4,9,1];
TransferTime   = [| 0,0,1,0,0 | 0,0,0,2,2 | 4,5,0,1,2 | 0,0,3,0,0 | 3,0,0,0,0 | 0,4,0,0,0 | 0,0,0,4,4 | 0,1,5,0,0 |];
